\* MFO *\
Maximize
OBJ: 14 sMS_(1,_4)_1 + 14 sMS_(1,_4)_2 + 14 sMS_(1,_4)_3 + 12 sMS_(3,_1)_1
 + 12 sMS_(3,_1)_2 + 12 sMS_(3,_1)_3 + 17 sMS_(4,_2)_1 + 17 sMS_(4,_2)_2
 + 17 sMS_(4,_2)_3 + 18 sMS_(4,_3)_1 + 18 sMS_(4,_3)_2 + 18 sMS_(4,_3)_3
 + 19 sMS_(4,_6)_1 + 19 sMS_(4,_6)_2 + 19 sMS_(4,_6)_3 + 18 sMS_(5,_3)_1
 + 18 sMS_(5,_3)_2 + 18 sMS_(5,_3)_3 + 13 sMS_(6,_1)_1 + 13 sMS_(6,_1)_2
 + 13 sMS_(6,_1)_3 + 16 sMS_(6,_2)_1 + 16 sMS_(6,_2)_2 + 16 sMS_(6,_2)_3
 + 11 sMS_(7,_3)_1 + 11 sMS_(7,_3)_2 + 11 sMS_(7,_3)_3 + 13 sMS_(7,_5)_1
 + 13 sMS_(7,_5)_2 + 13 sMS_(7,_5)_3 + 12 sMS_(7,_6)_1 + 12 sMS_(7,_6)_2
 + 12 sMS_(7,_6)_3
Subject To
Maximum_number_of_matches: sMS_(1,_4)_1 + sMS_(1,_4)_2 + sMS_(1,_4)_3
 + sMS_(3,_1)_1 + sMS_(3,_1)_2 + sMS_(3,_1)_3 + sMS_(4,_2)_1 + sMS_(4,_2)_2
 + sMS_(4,_2)_3 + sMS_(4,_3)_1 + sMS_(4,_3)_2 + sMS_(4,_3)_3 + sMS_(4,_6)_1
 + sMS_(4,_6)_2 + sMS_(4,_6)_3 + sMS_(5,_3)_1 + sMS_(5,_3)_2 + sMS_(5,_3)_3
 + sMS_(6,_1)_1 + sMS_(6,_1)_2 + sMS_(6,_1)_3 + sMS_(6,_2)_1 + sMS_(6,_2)_2
 + sMS_(6,_2)_3 + sMS_(7,_3)_1 + sMS_(7,_3)_2 + sMS_(7,_3)_3 + sMS_(7,_5)_1
 + sMS_(7,_5)_2 + sMS_(7,_5)_3 + sMS_(7,_6)_1 + sMS_(7,_6)_2 + sMS_(7,_6)_3
 = 11
_C1: sMS_(6,_2)_1 + sMS_(6,_2)_2 + sMS_(6,_2)_3 = 1
_C10: sMS_(4,_2)_1 + sMS_(4,_2)_2 + sMS_(4,_2)_3 = 1
_C11: sMS_(1,_4)_1 + sMS_(1,_4)_2 + sMS_(1,_4)_3 = 1
_C12: 0 sMS_(1,_4)_1 + 0 sMS_(3,_1)_1 + 0 sMS_(6,_1)_1 <= 2
_C13: sMS_(1,_4)_1 - sMS_(1,_4)_2 + sMS_(3,_1)_1 - sMS_(3,_1)_2 + sMS_(6,_1)_1
 - sMS_(6,_1)_2 <= 2
_C14: sMS_(1,_4)_1 - sMS_(1,_4)_3 + sMS_(3,_1)_1 - sMS_(3,_1)_3 + sMS_(6,_1)_1
 - sMS_(6,_1)_3 <= 2
_C15: - sMS_(1,_4)_1 + sMS_(1,_4)_2 - sMS_(3,_1)_1 + sMS_(3,_1)_2
 - sMS_(6,_1)_1 + sMS_(6,_1)_2 <= 2
_C16: 0 sMS_(1,_4)_2 + 0 sMS_(3,_1)_2 + 0 sMS_(6,_1)_2 <= 2
_C17: sMS_(1,_4)_2 - sMS_(1,_4)_3 + sMS_(3,_1)_2 - sMS_(3,_1)_3 + sMS_(6,_1)_2
 - sMS_(6,_1)_3 <= 2
_C18: - sMS_(1,_4)_1 + sMS_(1,_4)_3 - sMS_(3,_1)_1 + sMS_(3,_1)_3
 - sMS_(6,_1)_1 + sMS_(6,_1)_3 <= 2
_C19: - sMS_(1,_4)_2 + sMS_(1,_4)_3 - sMS_(3,_1)_2 + sMS_(3,_1)_3
 - sMS_(6,_1)_2 + sMS_(6,_1)_3 <= 2
_C2: sMS_(6,_1)_1 + sMS_(6,_1)_2 + sMS_(6,_1)_3 = 1
_C20: 0 sMS_(1,_4)_3 + 0 sMS_(3,_1)_3 + 0 sMS_(6,_1)_3 <= 2
_C21: 0 sMS_(4,_2)_1 + 0 sMS_(6,_2)_1 <= 2
_C22: sMS_(4,_2)_1 - sMS_(4,_2)_2 + sMS_(6,_2)_1 - sMS_(6,_2)_2 <= 2
_C23: sMS_(4,_2)_1 - sMS_(4,_2)_3 + sMS_(6,_2)_1 - sMS_(6,_2)_3 <= 2
_C24: - sMS_(4,_2)_1 + sMS_(4,_2)_2 - sMS_(6,_2)_1 + sMS_(6,_2)_2 <= 2
_C25: 0 sMS_(4,_2)_2 + 0 sMS_(6,_2)_2 <= 2
_C26: sMS_(4,_2)_2 - sMS_(4,_2)_3 + sMS_(6,_2)_2 - sMS_(6,_2)_3 <= 2
_C27: - sMS_(4,_2)_1 + sMS_(4,_2)_3 - sMS_(6,_2)_1 + sMS_(6,_2)_3 <= 2
_C28: - sMS_(4,_2)_2 + sMS_(4,_2)_3 - sMS_(6,_2)_2 + sMS_(6,_2)_3 <= 2
_C29: 0 sMS_(4,_2)_3 + 0 sMS_(6,_2)_3 <= 2
_C3: sMS_(7,_6)_1 + sMS_(7,_6)_2 + sMS_(7,_6)_3 = 1
_C30: 0 sMS_(3,_1)_1 + 0 sMS_(4,_3)_1 + 0 sMS_(5,_3)_1 + 0 sMS_(7,_3)_1 <= 2
_C31: sMS_(3,_1)_1 - sMS_(3,_1)_2 + sMS_(4,_3)_1 - sMS_(4,_3)_2 + sMS_(5,_3)_1
 - sMS_(5,_3)_2 + sMS_(7,_3)_1 - sMS_(7,_3)_2 <= 2
_C32: sMS_(3,_1)_1 - sMS_(3,_1)_3 + sMS_(4,_3)_1 - sMS_(4,_3)_3 + sMS_(5,_3)_1
 - sMS_(5,_3)_3 + sMS_(7,_3)_1 - sMS_(7,_3)_3 <= 2
_C33: - sMS_(3,_1)_1 + sMS_(3,_1)_2 - sMS_(4,_3)_1 + sMS_(4,_3)_2
 - sMS_(5,_3)_1 + sMS_(5,_3)_2 - sMS_(7,_3)_1 + sMS_(7,_3)_2 <= 2
_C34: 0 sMS_(3,_1)_2 + 0 sMS_(4,_3)_2 + 0 sMS_(5,_3)_2 + 0 sMS_(7,_3)_2 <= 2
_C35: sMS_(3,_1)_2 - sMS_(3,_1)_3 + sMS_(4,_3)_2 - sMS_(4,_3)_3 + sMS_(5,_3)_2
 - sMS_(5,_3)_3 + sMS_(7,_3)_2 - sMS_(7,_3)_3 <= 2
_C36: - sMS_(3,_1)_1 + sMS_(3,_1)_3 - sMS_(4,_3)_1 + sMS_(4,_3)_3
 - sMS_(5,_3)_1 + sMS_(5,_3)_3 - sMS_(7,_3)_1 + sMS_(7,_3)_3 <= 2
_C37: - sMS_(3,_1)_2 + sMS_(3,_1)_3 - sMS_(4,_3)_2 + sMS_(4,_3)_3
 - sMS_(5,_3)_2 + sMS_(5,_3)_3 - sMS_(7,_3)_2 + sMS_(7,_3)_3 <= 2
_C38: 0 sMS_(3,_1)_3 + 0 sMS_(4,_3)_3 + 0 sMS_(5,_3)_3 + 0 sMS_(7,_3)_3 <= 2
_C39: 0 sMS_(1,_4)_1 + 0 sMS_(4,_2)_1 + 0 sMS_(4,_3)_1 + 0 sMS_(4,_6)_1 <= 2
_C4: sMS_(4,_3)_1 + sMS_(4,_3)_2 + sMS_(4,_3)_3 = 1
_C40: sMS_(1,_4)_1 - sMS_(1,_4)_2 + sMS_(4,_2)_1 - sMS_(4,_2)_2 + sMS_(4,_3)_1
 - sMS_(4,_3)_2 + sMS_(4,_6)_1 - sMS_(4,_6)_2 <= 2
_C41: sMS_(1,_4)_1 - sMS_(1,_4)_3 + sMS_(4,_2)_1 - sMS_(4,_2)_3 + sMS_(4,_3)_1
 - sMS_(4,_3)_3 + sMS_(4,_6)_1 - sMS_(4,_6)_3 <= 2
_C42: - sMS_(1,_4)_1 + sMS_(1,_4)_2 - sMS_(4,_2)_1 + sMS_(4,_2)_2
 - sMS_(4,_3)_1 + sMS_(4,_3)_2 - sMS_(4,_6)_1 + sMS_(4,_6)_2 <= 2
_C43: 0 sMS_(1,_4)_2 + 0 sMS_(4,_2)_2 + 0 sMS_(4,_3)_2 + 0 sMS_(4,_6)_2 <= 2
_C44: sMS_(1,_4)_2 - sMS_(1,_4)_3 + sMS_(4,_2)_2 - sMS_(4,_2)_3 + sMS_(4,_3)_2
 - sMS_(4,_3)_3 + sMS_(4,_6)_2 - sMS_(4,_6)_3 <= 2
_C45: - sMS_(1,_4)_1 + sMS_(1,_4)_3 - sMS_(4,_2)_1 + sMS_(4,_2)_3
 - sMS_(4,_3)_1 + sMS_(4,_3)_3 - sMS_(4,_6)_1 + sMS_(4,_6)_3 <= 2
_C46: - sMS_(1,_4)_2 + sMS_(1,_4)_3 - sMS_(4,_2)_2 + sMS_(4,_2)_3
 - sMS_(4,_3)_2 + sMS_(4,_3)_3 - sMS_(4,_6)_2 + sMS_(4,_6)_3 <= 2
_C47: 0 sMS_(1,_4)_3 + 0 sMS_(4,_2)_3 + 0 sMS_(4,_3)_3 + 0 sMS_(4,_6)_3 <= 2
_C48: 0 sMS_(5,_3)_1 + 0 sMS_(7,_5)_1 <= 2
_C49: sMS_(5,_3)_1 - sMS_(5,_3)_2 + sMS_(7,_5)_1 - sMS_(7,_5)_2 <= 2
_C5: sMS_(4,_6)_1 + sMS_(4,_6)_2 + sMS_(4,_6)_3 = 1
_C50: sMS_(5,_3)_1 - sMS_(5,_3)_3 + sMS_(7,_5)_1 - sMS_(7,_5)_3 <= 2
_C51: - sMS_(5,_3)_1 + sMS_(5,_3)_2 - sMS_(7,_5)_1 + sMS_(7,_5)_2 <= 2
_C52: 0 sMS_(5,_3)_2 + 0 sMS_(7,_5)_2 <= 2
_C53: sMS_(5,_3)_2 - sMS_(5,_3)_3 + sMS_(7,_5)_2 - sMS_(7,_5)_3 <= 2
_C54: - sMS_(5,_3)_1 + sMS_(5,_3)_3 - sMS_(7,_5)_1 + sMS_(7,_5)_3 <= 2
_C55: - sMS_(5,_3)_2 + sMS_(5,_3)_3 - sMS_(7,_5)_2 + sMS_(7,_5)_3 <= 2
_C56: 0 sMS_(5,_3)_3 + 0 sMS_(7,_5)_3 <= 2
_C57: 0 sMS_(4,_6)_1 + 0 sMS_(6,_1)_1 + 0 sMS_(6,_2)_1 + 0 sMS_(7,_6)_1 <= 2
_C58: sMS_(4,_6)_1 - sMS_(4,_6)_2 + sMS_(6,_1)_1 - sMS_(6,_1)_2 + sMS_(6,_2)_1
 - sMS_(6,_2)_2 + sMS_(7,_6)_1 - sMS_(7,_6)_2 <= 2
_C59: sMS_(4,_6)_1 - sMS_(4,_6)_3 + sMS_(6,_1)_1 - sMS_(6,_1)_3 + sMS_(6,_2)_1
 - sMS_(6,_2)_3 + sMS_(7,_6)_1 - sMS_(7,_6)_3 <= 2
_C6: sMS_(3,_1)_1 + sMS_(3,_1)_2 + sMS_(3,_1)_3 = 1
_C60: - sMS_(4,_6)_1 + sMS_(4,_6)_2 - sMS_(6,_1)_1 + sMS_(6,_1)_2
 - sMS_(6,_2)_1 + sMS_(6,_2)_2 - sMS_(7,_6)_1 + sMS_(7,_6)_2 <= 2
_C61: 0 sMS_(4,_6)_2 + 0 sMS_(6,_1)_2 + 0 sMS_(6,_2)_2 + 0 sMS_(7,_6)_2 <= 2
_C62: sMS_(4,_6)_2 - sMS_(4,_6)_3 + sMS_(6,_1)_2 - sMS_(6,_1)_3 + sMS_(6,_2)_2
 - sMS_(6,_2)_3 + sMS_(7,_6)_2 - sMS_(7,_6)_3 <= 2
_C63: - sMS_(4,_6)_1 + sMS_(4,_6)_3 - sMS_(6,_1)_1 + sMS_(6,_1)_3
 - sMS_(6,_2)_1 + sMS_(6,_2)_3 - sMS_(7,_6)_1 + sMS_(7,_6)_3 <= 2
_C64: - sMS_(4,_6)_2 + sMS_(4,_6)_3 - sMS_(6,_1)_2 + sMS_(6,_1)_3
 - sMS_(6,_2)_2 + sMS_(6,_2)_3 - sMS_(7,_6)_2 + sMS_(7,_6)_3 <= 2
_C65: 0 sMS_(4,_6)_3 + 0 sMS_(6,_1)_3 + 0 sMS_(6,_2)_3 + 0 sMS_(7,_6)_3 <= 2
_C66: 0 sMS_(7,_3)_1 + 0 sMS_(7,_5)_1 + 0 sMS_(7,_6)_1 <= 2
_C67: sMS_(7,_3)_1 - sMS_(7,_3)_2 + sMS_(7,_5)_1 - sMS_(7,_5)_2 + sMS_(7,_6)_1
 - sMS_(7,_6)_2 <= 2
_C68: sMS_(7,_3)_1 - sMS_(7,_3)_3 + sMS_(7,_5)_1 - sMS_(7,_5)_3 + sMS_(7,_6)_1
 - sMS_(7,_6)_3 <= 2
_C69: - sMS_(7,_3)_1 + sMS_(7,_3)_2 - sMS_(7,_5)_1 + sMS_(7,_5)_2
 - sMS_(7,_6)_1 + sMS_(7,_6)_2 <= 2
_C7: sMS_(5,_3)_1 + sMS_(5,_3)_2 + sMS_(5,_3)_3 = 1
_C70: 0 sMS_(7,_3)_2 + 0 sMS_(7,_5)_2 + 0 sMS_(7,_6)_2 <= 2
_C71: sMS_(7,_3)_2 - sMS_(7,_3)_3 + sMS_(7,_5)_2 - sMS_(7,_5)_3 + sMS_(7,_6)_2
 - sMS_(7,_6)_3 <= 2
_C72: - sMS_(7,_3)_1 + sMS_(7,_3)_3 - sMS_(7,_5)_1 + sMS_(7,_5)_3
 - sMS_(7,_6)_1 + sMS_(7,_6)_3 <= 2
_C73: - sMS_(7,_3)_2 + sMS_(7,_3)_3 - sMS_(7,_5)_2 + sMS_(7,_5)_3
 - sMS_(7,_6)_2 + sMS_(7,_6)_3 <= 2
_C74: 0 sMS_(7,_3)_3 + 0 sMS_(7,_5)_3 + 0 sMS_(7,_6)_3 <= 2
_C8: sMS_(7,_5)_1 + sMS_(7,_5)_2 + sMS_(7,_5)_3 = 1
_C9: sMS_(7,_3)_1 + sMS_(7,_3)_2 + sMS_(7,_3)_3 = 1
Binaries
sMS_(1,_4)_1
sMS_(1,_4)_2
sMS_(1,_4)_3
sMS_(3,_1)_1
sMS_(3,_1)_2
sMS_(3,_1)_3
sMS_(4,_2)_1
sMS_(4,_2)_2
sMS_(4,_2)_3
sMS_(4,_3)_1
sMS_(4,_3)_2
sMS_(4,_3)_3
sMS_(4,_6)_1
sMS_(4,_6)_2
sMS_(4,_6)_3
sMS_(5,_3)_1
sMS_(5,_3)_2
sMS_(5,_3)_3
sMS_(6,_1)_1
sMS_(6,_1)_2
sMS_(6,_1)_3
sMS_(6,_2)_1
sMS_(6,_2)_2
sMS_(6,_2)_3
sMS_(7,_3)_1
sMS_(7,_3)_2
sMS_(7,_3)_3
sMS_(7,_5)_1
sMS_(7,_5)_2
sMS_(7,_5)_3
sMS_(7,_6)_1
sMS_(7,_6)_2
sMS_(7,_6)_3
End
